p cnf 15 29
-15 14 7 0
15 -14 -2 0
-15 11 9 0
-15 -10 8 0
-15 -9 3 0
-15 -7 -5 0
14 13 -8 0
14 -13 -5 0
-14 11 -10 0
14 6 -5 0
-14 4 3 0
-13 -9 -1 0
-13 -5 2 0
12 -8 -2 0
12 7 -5 0
11 8 -4 0
-11 7 -3 0
-11 -6 3 0
-11 -3 2 0
11 -2 -1 0
-9 8 7 0
-9 8 -1 0
9 7 2 0
-9 4 1 0
9 -3 -1 0
-8 -7 6 0
-8 5 -1 0
8 4 -2 0
6 4 1 0
